1251 1231 1183 1316
1310 1261 1089 1420
1031 1140 1124 1370
1023 1338 1258 1274
1168 1362 1313 1313
1122 1316 1309 1085
1131 1313 1496 1264
1126 1234 1167 1164
1112 1337 1327 1251
1239 1401 1310 1121
